Output/BruteForce/Random_020_02_7.ans
Facilties: 1 4 8 12 15 16 19 Score: 33
