Output/Exact/Random_020_02_7.lp.out
CPU Time for Parsing input: 0.003538s (0.003538s total since program start)
CPU Time for solving: 1.10503s (1.10857s total since program start)

Value of objective function: 33.00000000
